D = 4;
n = [ 2 2 2 2 ];
N = 8;
d = [1 1 2 2 3 3 4 4 ];
m = [
[1.00 0.61 0.85 0.54 0.30 0.88 0.77 0.49 ]
[0.61 1.00 0.98 0.23 0.75 0.46 0.62 0.29 ]
[0.85 0.98 1.00 0.56 0.69 0.43 0.91 0.03 ]
[0.54 0.23 0.56 1.00 0.87 0.80 0.05 0.73 ]
[0.30 0.75 0.69 0.87 1.00 0.53 0.85 0.02 ]
[0.88 0.46 0.43 0.80 0.53 1.00 0.96 0.04 ]
[0.77 0.62 0.91 0.05 0.85 0.96 1.00 0.72 ]
[0.49 0.29 0.03 0.73 0.02 0.04 0.72 1.00 ]
];
